set VV := 0 1 2 3 4 5 6 7 8 9 10 11 12 ;
set VS := 0 1 2 3 4 5 6 7 8 9 10 11 12 13 14 15 16 17 18 19 20 21 22 23 24 25 26 27 28 29 ;
param cv := 
0 25
1 12
2 21
3 20
4 15
5 18
6 11
7 13
8 25
9 21
10 22
11 13
12 22
;
param cs := 
0 32
1 28
2 26
3 27
4 38
5 37
6 38
7 30
8 37
9 36
10 31
11 34
12 26
13 20
14 31
15 33
16 38
17 36
18 40
19 28
20 37
21 34
22 34
23 27
24 25
25 39
26 34
27 26
28 33
29 20
;
param bv:	 0 1 2 3 4 5 6 7 8 9 10 11 12 := 
		0 0 0 0 22 12 0 0 0 0 0 12 0 11 
		1 0 0 0 0 0 0 0 0 0 12 0 0 0 
		2 0 0 0 0 0 0 0 0 0 21 0 0 12 
		3 0 0 0 0 0 0 0 12 0 0 0 0 19 
		4 0 0 0 0 0 0 0 0 0 0 20 0 0 
		5 0 0 0 0 0 0 0 0 0 17 0 0 0 
		6 0 0 0 0 0 0 0 0 25 0 0 14 0 
		7 0 0 0 0 0 0 0 0 0 0 0 0 0 
		8 0 0 0 0 0 0 0 0 0 0 11 0 0 
		9 0 0 0 0 0 0 0 0 0 0 15 0 0 
		10 0 0 0 0 0 0 0 0 0 0 0 0 0 
		11 0 0 0 0 0 0 0 0 0 0 0 0 0 
		12 0 0 0 0 0 0 0 0 0 0 0 0 0 
;
param bs:	 0 1 2 3 4 5 6 7 8 9 10 11 12 13 14 15 16 17 18 19 20 21 22 23 24 25 26 27 28 29 := 
		0 0 0 20 0 0 0 0 0 34 0 0 0 0 0 32 0 0 35 29 0 0 0 0 0 0 0 0 0 0 0 
		1 0 0 0 0 0 0 0 0 30 0 0 0 28 0 0 36 0 0 0 0 0 21 0 0 0 0 0 0 0 0 
		2 20 0 0 0 0 0 0 0 0 0 0 0 0 0 0 0 0 0 0 0 0 0 0 0 0 0 0 0 0 0 
		3 0 0 0 0 23 0 0 0 0 0 0 0 0 0 0 0 0 0 0 0 0 0 24 0 0 0 0 0 0 0 
		4 0 0 0 23 0 0 0 0 0 0 0 0 0 30 0 0 0 0 37 35 0 0 0 0 0 23 0 36 0 0 
		5 0 0 0 0 0 0 0 0 0 0 24 36 0 0 0 0 23 0 0 0 0 0 0 0 0 0 0 0 0 0 
		6 0 0 0 0 0 0 0 0 0 32 0 0 0 0 27 0 0 35 0 0 0 0 0 0 0 0 0 0 21 0 
		7 0 0 0 0 0 0 0 0 0 0 0 21 0 22 0 0 0 0 0 0 0 0 0 0 0 0 0 37 0 0 
		8 34 30 0 0 0 0 0 0 0 0 0 0 0 0 0 0 0 0 0 0 23 0 22 0 0 30 0 0 0 0 
		9 0 0 0 0 0 0 32 0 0 0 0 0 0 0 0 0 0 0 0 32 0 0 0 0 0 0 0 33 32 0 
		10 0 0 0 0 0 24 0 0 0 0 0 0 0 0 0 0 0 0 0 0 0 0 0 0 0 0 35 0 0 0 
		11 0 0 0 0 0 36 0 21 0 0 0 0 0 0 0 0 0 0 0 0 35 0 0 0 0 0 0 26 0 0 
		12 0 28 0 0 0 0 0 0 0 0 0 0 0 0 0 28 0 0 0 20 0 0 0 0 0 0 0 0 0 0 
		13 0 0 0 0 30 0 0 22 0 0 0 0 0 0 0 0 0 0 0 0 0 0 0 0 0 0 0 0 0 0 
		14 32 0 0 0 0 0 27 0 0 0 0 0 0 0 0 0 0 0 0 0 0 0 0 22 0 0 0 0 0 25 
		15 0 36 0 0 0 0 0 0 0 0 0 0 28 0 0 0 0 0 0 0 0 0 0 0 0 0 0 0 0 0 
		16 0 0 0 0 0 23 0 0 0 0 0 0 0 0 0 0 0 0 0 0 0 0 0 40 0 0 0 0 0 0 
		17 35 0 0 0 0 0 35 0 0 0 0 0 0 0 0 0 0 0 0 0 0 0 0 0 0 0 0 0 0 30 
		18 29 0 0 0 37 0 0 0 0 0 0 0 0 0 0 0 0 0 0 0 0 0 0 0 0 26 0 0 0 0 
		19 0 0 0 0 35 0 0 0 0 32 0 0 20 0 0 0 0 0 0 0 0 0 0 0 0 0 0 0 22 0 
		20 0 0 0 0 0 0 0 0 23 0 0 35 0 0 0 0 0 0 0 0 0 0 34 0 27 0 34 0 0 0 
		21 0 21 0 0 0 0 0 0 0 0 0 0 0 0 0 0 0 0 0 0 0 0 0 0 34 0 0 0 0 0 
		22 0 0 0 24 0 0 0 0 22 0 0 0 0 0 0 0 0 0 0 0 34 0 0 0 0 0 0 0 25 0 
		23 0 0 0 0 0 0 0 0 0 0 0 0 0 0 22 0 40 0 0 0 0 0 0 0 0 0 0 0 0 0 
		24 0 0 0 0 0 0 0 0 0 0 0 0 0 0 0 0 0 0 0 0 27 34 0 0 0 0 0 0 0 0 
		25 0 0 0 0 23 0 0 0 30 0 0 0 0 0 0 0 0 0 26 0 0 0 0 0 0 0 0 36 39 0 
		26 0 0 0 0 0 0 0 0 0 0 35 0 0 0 0 0 0 0 0 0 34 0 0 0 0 0 0 0 0 0 
		27 0 0 0 0 36 0 0 37 0 33 0 26 0 0 0 0 0 0 0 0 0 0 0 0 0 36 0 0 0 31 
		28 0 0 0 0 0 0 21 0 0 32 0 0 0 0 0 0 0 0 0 22 0 0 25 0 0 39 0 0 0 0 
		29 0 0 0 0 0 0 0 0 0 0 0 0 0 0 25 0 0 30 0 0 0 0 0 0 0 0 0 31 0 0 
;
